letting presetvals be [
    [-1,-1,-1,-2,-1,-1,-1],
    [-1,-2,-1,-1,-1,-2,-1],
    [-1,-2,-1,-2,-1,-2,-1],
    [-1,-1,-1,-2,-1,-1,-1],
    [-2,-1,-2,-2,-2,-1,-2],
    [-1,-1,-1,-2,-1,-1,-1],
    [-1,-2,-1,-1,-1,-2,-1],
    [-1,-2,-1,-2,-1,-2,-1],
    [-1,-1,-1,-2,-1,-1,-1]
]
letting op be [1,2,3,1,2,3,1,2,3,1,2,3,1,2,3,1,2,3,1,2]
